Minimize	

	obj: 4 y1 + 5 y2 + 7 y3

Subject To

	y4:   y1   + 2 y2   + 2 y3 >= 3 
 	y5:   y1   +            y3 >= 2
	y6: 2 y1   + 3 y2   + 3 y3 >= 4
Bounds

	0 <= y1 <= +Inf
	0 <= y2 <= +Inf
	0 <= y3 <= +Inf

End
